c A SAT instance generated from a 3-CNF formula that had 39 clauses and 13 variables
p cnf 13 39
4 7 -12 0
-12 -3 13 0
9 13 -1 0
-4 -8 7 0
-5 10 -1 0
-13 1 -7 0
3 -5 -6 0
8 -1 -2 0
-7 -11 8 0
7 -2 12 0
-4 6 -2 0
13 2 -3 0
6 -13 5 0
-1 -6 -8 0
5 13 -10 0
11 3 6 0
-4 -7 9 0
-4 -10 3 0
8 -7 6 0
1 -3 -13 0
6 -1 -2 0
-2 7 -6 0
4 11 2 0
-1 -5 10 0
-7 -11 -12 0
1 -8 11 0
-12 -1 -2 0
1 -8 10 0
12 -6 9 0
11 -10 -7 0
-5 -7 9 0
-13 11 4 0
-2 -6 -1 0
-12 11 -9 0
2 -13 8 0
9 -13 12 0
4 6 -10 0
-13 1 -12 0
13 -12 11 0
